NAME: random_40_7
TYPE: TSP
COMMENT: random_40_7
DIMENSION: 40
EDGE_WEIGHT_TYPE: EUC_2D
NODE_COORD_SECTION
1 406 114
2 279 3
3 228 221
4 150 190
5 306 311
6 400 496
7 261 299
8 58 414
9 406 429
10 411 235
11 451 118
12 0 153
13 38 331
14 472 267
15 376 455
16 274 201
17 211 112
18 75 494
19 36 104
20 393 280
21 415 10
22 213 257
23 215 257
24 495 99
25 127 230
26 144 342
27 23 203
28 158 421
29 251 16
30 365 451
31 40 428
32 448 435
33 29 245
34 404 108
35 327 43
36 327 7
37 486 138
38 160 43
39 165 147
40 492 446
